c Generated map
c Size: 8 * 8, weights in range: 1 to 10, walls: True, with ratio 0.05
c dim 2 of 8
c
p sp 64 100
c graph contains 64 nodes and 100 arcs
c
a 1 9 1
a 9 1 1
a 1 2 2
a 2 1 2
a 2 10 5
a 10 2 5
a 2 3 4
a 3 2 4
a 3 11 5
a 11 3 5
a 3 4 2
a 4 3 2
a 4 12 8
a 12 4 8
a 4 5 1
a 5 4 1
a 5 13 8
a 13 5 8
a 5 6 5
a 6 5 5
a 6 14 9
a 14 6 9
a 6 7 3
a 7 6 3
a 7 15 8
a 15 7 8
a 7 8 5
a 8 7 5
a 8 16 5
a 16 8 5
a 9 17 5
a 17 9 5
a 9 10 5
a 10 9 5
a 10 18 5
a 18 10 5
a 10 11 7
a 11 10 7
a 11 12 9
a 12 11 9
a 12 20 8
a 20 12 8
a 12 13 1
a 13 12 1
a 13 21 1
a 21 13 1
a 13 14 5
a 14 13 5
a 14 22 3
a 22 14 3
a 14 15 9
a 15 14 9
a 15 23 6
a 23 15 6
a 15 16 1
a 16 15 1
a 16 24 1
a 24 16 1
a 17 25 3
a 25 17 3
a 17 18 8
a 18 17 8
a 18 26 6
a 26 18 6
a 20 28 3
a 28 20 3
a 20 21 8
a 21 20 8
a 21 29 8
a 29 21 8
a 21 22 8
a 22 21 8
a 22 30 10
a 30 22 10
a 22 23 9
a 23 22 9
a 23 24 10
a 24 23 10
a 24 32 9
a 32 24 9
a 25 33 7
a 33 25 7
a 25 26 7
a 26 25 7
a 26 27 6
a 27 26 6
a 27 35 1
a 35 27 1
a 27 28 6
a 28 27 6
a 28 36 7
a 36 28 7
a 28 29 2
a 29 28 2
a 29 37 6
a 37 29 6
a 29 30 7
a 30 29 7
a 30 38 5
a 38 30 5
a 32 40 9
a 40 32 9
a 33 41 4
a 41 33 4
a 35 43 2
a 43 35 2
a 35 36 4
a 36 35 4
a 36 44 5
a 44 36 5
a 36 37 5
a 37 36 5
a 37 45 1
a 45 37 1
a 37 38 1
a 38 37 1
a 38 46 9
a 46 38 9
a 38 39 8
a 39 38 8
a 39 47 9
a 47 39 9
a 39 40 1
a 40 39 1
a 40 48 7
a 48 40 7
a 41 49 9
a 49 41 9
a 41 42 10
a 42 41 10
a 42 50 7
a 50 42 7
a 42 43 2
a 43 42 2
a 43 51 8
a 51 43 8
a 43 44 3
a 44 43 3
a 44 52 5
a 52 44 5
a 44 45 6
a 45 44 6
a 45 53 1
a 53 45 1
a 45 46 5
a 46 45 5
a 46 54 8
a 54 46 8
a 46 47 7
a 47 46 7
a 47 55 9
a 55 47 9
a 47 48 1
a 48 47 1
a 48 56 9
a 56 48 9
a 49 57 9
a 57 49 9
a 49 50 5
a 50 49 5
a 50 58 2
a 58 50 2
a 50 51 5
a 51 50 5
a 51 59 6
a 59 51 6
a 51 52 6
a 52 51 6
a 52 60 7
a 60 52 7
a 52 53 8
a 53 52 8
a 53 61 7
a 61 53 7
a 53 54 2
a 54 53 2
a 54 62 3
a 62 54 3
a 54 55 3
a 55 54 3
a 55 63 10
a 63 55 10
a 55 56 8
a 56 55 8
a 56 64 2
a 64 56 2
a 57 58 3
a 58 57 3
a 58 59 9
a 59 58 9
a 59 60 2
a 60 59 2
a 60 61 1
a 61 60 1
a 61 62 9
a 62 61 9
a 62 63 10
a 63 62 10
a 63 64 4
a 64 63 4
